begin projections
f=0.50, 0.50, 0.50 : s # n = 2, l = 0
f=0.50, 0.50, 0.50 : s # n = 2, l = 1
f=0.50, 0.50, 0.50 : s # n = 2, l = 1
f=0.50, 0.50, 0.50 : s # n = 2, l = 1
f=0.00, 0.00, 0.00 : s # n = 3, l = 2
f=0.00, 0.00, 0.00 : s # n = 3, l = 2
f=0.00, 0.00, 0.00 : s # n = 3, l = 2
f=0.00, 0.00, 0.00 : s # n = 3, l = 2
f=0.00, 0.00, 0.00 : s # n = 3, l = 2
end projections

spinors = False
write_hr = True

num_bands       = 9
exclude_bands : 1,2,3,4,5,6,7,8

guiding_centres = True
num_wann        = 9
num_iter        = 1000


begin unit_cell_cart
  4.9927100000   0.0000000000   0.0000000000
  4.1872389313   2.7192247565   0.0000000000
  4.1872389313   1.2403166781   2.4198755783
end unit_cell_cart

begin atoms_frac
Li  0.5000000000   0.5000000000   0.5000000000
Co  0.0000000000   0.0000000000   0.0000000000
O  0.7395870000   0.7395870000   0.7395870000
O  0.2604130000   0.2604130000   0.2604130000
end atoms_frac

wannier_plot   = True
wvfn_formatted = True

mp_grid = 8 8 8

begin kpoints
 -0.4375000000  -0.4375000000  -0.4375000000
 -0.4375000000  -0.4375000000  -0.3125000000
 -0.4375000000  -0.4375000000  -0.1875000000
 -0.4375000000  -0.4375000000  -0.0625000000
 -0.4375000000  -0.4375000000   0.0625000000
 -0.4375000000  -0.4375000000   0.1875000000
 -0.4375000000  -0.4375000000   0.3125000000
 -0.4375000000  -0.4375000000   0.4375000000
 -0.4375000000  -0.3125000000  -0.4375000000
 -0.4375000000  -0.3125000000  -0.3125000000
 -0.4375000000  -0.3125000000  -0.1875000000
 -0.4375000000  -0.3125000000  -0.0625000000
 -0.4375000000  -0.3125000000   0.0625000000
 -0.4375000000  -0.3125000000   0.1875000000
 -0.4375000000  -0.3125000000   0.3125000000
 -0.4375000000  -0.3125000000   0.4375000000
 -0.4375000000  -0.1875000000  -0.4375000000
 -0.4375000000  -0.1875000000  -0.3125000000
 -0.4375000000  -0.1875000000  -0.1875000000
 -0.4375000000  -0.1875000000  -0.0625000000
 -0.4375000000  -0.1875000000   0.0625000000
 -0.4375000000  -0.1875000000   0.1875000000
 -0.4375000000  -0.1875000000   0.3125000000
 -0.4375000000  -0.1875000000   0.4375000000
 -0.4375000000  -0.0625000000  -0.4375000000
 -0.4375000000  -0.0625000000  -0.3125000000
 -0.4375000000  -0.0625000000  -0.1875000000
 -0.4375000000  -0.0625000000  -0.0625000000
 -0.4375000000  -0.0625000000   0.0625000000
 -0.4375000000  -0.0625000000   0.1875000000
 -0.4375000000  -0.0625000000   0.3125000000
 -0.4375000000  -0.0625000000   0.4375000000
 -0.4375000000   0.0625000000  -0.4375000000
 -0.4375000000   0.0625000000  -0.3125000000
 -0.4375000000   0.0625000000  -0.1875000000
 -0.4375000000   0.0625000000  -0.0625000000
 -0.4375000000   0.0625000000   0.0625000000
 -0.4375000000   0.0625000000   0.1875000000
 -0.4375000000   0.0625000000   0.3125000000
 -0.4375000000   0.0625000000   0.4375000000
 -0.4375000000   0.1875000000  -0.4375000000
 -0.4375000000   0.1875000000  -0.3125000000
 -0.4375000000   0.1875000000  -0.1875000000
 -0.4375000000   0.1875000000  -0.0625000000
 -0.4375000000   0.1875000000   0.0625000000
 -0.4375000000   0.1875000000   0.1875000000
 -0.4375000000   0.1875000000   0.3125000000
 -0.4375000000   0.1875000000   0.4375000000
 -0.4375000000   0.3125000000  -0.4375000000
 -0.4375000000   0.3125000000  -0.3125000000
 -0.4375000000   0.3125000000  -0.1875000000
 -0.4375000000   0.3125000000  -0.0625000000
 -0.4375000000   0.3125000000   0.0625000000
 -0.4375000000   0.3125000000   0.1875000000
 -0.4375000000   0.3125000000   0.3125000000
 -0.4375000000   0.3125000000   0.4375000000
 -0.4375000000   0.4375000000  -0.4375000000
 -0.4375000000   0.4375000000  -0.3125000000
 -0.4375000000   0.4375000000  -0.1875000000
 -0.4375000000   0.4375000000  -0.0625000000
 -0.4375000000   0.4375000000   0.0625000000
 -0.4375000000   0.4375000000   0.1875000000
 -0.4375000000   0.4375000000   0.3125000000
 -0.4375000000   0.4375000000   0.4375000000
 -0.3125000000  -0.4375000000  -0.4375000000
 -0.3125000000  -0.4375000000  -0.3125000000
 -0.3125000000  -0.4375000000  -0.1875000000
 -0.3125000000  -0.4375000000  -0.0625000000
 -0.3125000000  -0.4375000000   0.0625000000
 -0.3125000000  -0.4375000000   0.1875000000
 -0.3125000000  -0.4375000000   0.3125000000
 -0.3125000000  -0.4375000000   0.4375000000
 -0.3125000000  -0.3125000000  -0.4375000000
 -0.3125000000  -0.3125000000  -0.3125000000
 -0.3125000000  -0.3125000000  -0.1875000000
 -0.3125000000  -0.3125000000  -0.0625000000
 -0.3125000000  -0.3125000000   0.0625000000
 -0.3125000000  -0.3125000000   0.1875000000
 -0.3125000000  -0.3125000000   0.3125000000
 -0.3125000000  -0.3125000000   0.4375000000
 -0.3125000000  -0.1875000000  -0.4375000000
 -0.3125000000  -0.1875000000  -0.3125000000
 -0.3125000000  -0.1875000000  -0.1875000000
 -0.3125000000  -0.1875000000  -0.0625000000
 -0.3125000000  -0.1875000000   0.0625000000
 -0.3125000000  -0.1875000000   0.1875000000
 -0.3125000000  -0.1875000000   0.3125000000
 -0.3125000000  -0.1875000000   0.4375000000
 -0.3125000000  -0.0625000000  -0.4375000000
 -0.3125000000  -0.0625000000  -0.3125000000
 -0.3125000000  -0.0625000000  -0.1875000000
 -0.3125000000  -0.0625000000  -0.0625000000
 -0.3125000000  -0.0625000000   0.0625000000
 -0.3125000000  -0.0625000000   0.1875000000
 -0.3125000000  -0.0625000000   0.3125000000
 -0.3125000000  -0.0625000000   0.4375000000
 -0.3125000000   0.0625000000  -0.4375000000
 -0.3125000000   0.0625000000  -0.3125000000
 -0.3125000000   0.0625000000  -0.1875000000
 -0.3125000000   0.0625000000  -0.0625000000
 -0.3125000000   0.0625000000   0.0625000000
 -0.3125000000   0.0625000000   0.1875000000
 -0.3125000000   0.0625000000   0.3125000000
 -0.3125000000   0.0625000000   0.4375000000
 -0.3125000000   0.1875000000  -0.4375000000
 -0.3125000000   0.1875000000  -0.3125000000
 -0.3125000000   0.1875000000  -0.1875000000
 -0.3125000000   0.1875000000  -0.0625000000
 -0.3125000000   0.1875000000   0.0625000000
 -0.3125000000   0.1875000000   0.1875000000
 -0.3125000000   0.1875000000   0.3125000000
 -0.3125000000   0.1875000000   0.4375000000
 -0.3125000000   0.3125000000  -0.4375000000
 -0.3125000000   0.3125000000  -0.3125000000
 -0.3125000000   0.3125000000  -0.1875000000
 -0.3125000000   0.3125000000  -0.0625000000
 -0.3125000000   0.3125000000   0.0625000000
 -0.3125000000   0.3125000000   0.1875000000
 -0.3125000000   0.3125000000   0.3125000000
 -0.3125000000   0.3125000000   0.4375000000
 -0.3125000000   0.4375000000  -0.4375000000
 -0.3125000000   0.4375000000  -0.3125000000
 -0.3125000000   0.4375000000  -0.1875000000
 -0.3125000000   0.4375000000  -0.0625000000
 -0.3125000000   0.4375000000   0.0625000000
 -0.3125000000   0.4375000000   0.1875000000
 -0.3125000000   0.4375000000   0.3125000000
 -0.3125000000   0.4375000000   0.4375000000
 -0.1875000000  -0.4375000000  -0.4375000000
 -0.1875000000  -0.4375000000  -0.3125000000
 -0.1875000000  -0.4375000000  -0.1875000000
 -0.1875000000  -0.4375000000  -0.0625000000
 -0.1875000000  -0.4375000000   0.0625000000
 -0.1875000000  -0.4375000000   0.1875000000
 -0.1875000000  -0.4375000000   0.3125000000
 -0.1875000000  -0.4375000000   0.4375000000
 -0.1875000000  -0.3125000000  -0.4375000000
 -0.1875000000  -0.3125000000  -0.3125000000
 -0.1875000000  -0.3125000000  -0.1875000000
 -0.1875000000  -0.3125000000  -0.0625000000
 -0.1875000000  -0.3125000000   0.0625000000
 -0.1875000000  -0.3125000000   0.1875000000
 -0.1875000000  -0.3125000000   0.3125000000
 -0.1875000000  -0.3125000000   0.4375000000
 -0.1875000000  -0.1875000000  -0.4375000000
 -0.1875000000  -0.1875000000  -0.3125000000
 -0.1875000000  -0.1875000000  -0.1875000000
 -0.1875000000  -0.1875000000  -0.0625000000
 -0.1875000000  -0.1875000000   0.0625000000
 -0.1875000000  -0.1875000000   0.1875000000
 -0.1875000000  -0.1875000000   0.3125000000
 -0.1875000000  -0.1875000000   0.4375000000
 -0.1875000000  -0.0625000000  -0.4375000000
 -0.1875000000  -0.0625000000  -0.3125000000
 -0.1875000000  -0.0625000000  -0.1875000000
 -0.1875000000  -0.0625000000  -0.0625000000
 -0.1875000000  -0.0625000000   0.0625000000
 -0.1875000000  -0.0625000000   0.1875000000
 -0.1875000000  -0.0625000000   0.3125000000
 -0.1875000000  -0.0625000000   0.4375000000
 -0.1875000000   0.0625000000  -0.4375000000
 -0.1875000000   0.0625000000  -0.3125000000
 -0.1875000000   0.0625000000  -0.1875000000
 -0.1875000000   0.0625000000  -0.0625000000
 -0.1875000000   0.0625000000   0.0625000000
 -0.1875000000   0.0625000000   0.1875000000
 -0.1875000000   0.0625000000   0.3125000000
 -0.1875000000   0.0625000000   0.4375000000
 -0.1875000000   0.1875000000  -0.4375000000
 -0.1875000000   0.1875000000  -0.3125000000
 -0.1875000000   0.1875000000  -0.1875000000
 -0.1875000000   0.1875000000  -0.0625000000
 -0.1875000000   0.1875000000   0.0625000000
 -0.1875000000   0.1875000000   0.1875000000
 -0.1875000000   0.1875000000   0.3125000000
 -0.1875000000   0.1875000000   0.4375000000
 -0.1875000000   0.3125000000  -0.4375000000
 -0.1875000000   0.3125000000  -0.3125000000
 -0.1875000000   0.3125000000  -0.1875000000
 -0.1875000000   0.3125000000  -0.0625000000
 -0.1875000000   0.3125000000   0.0625000000
 -0.1875000000   0.3125000000   0.1875000000
 -0.1875000000   0.3125000000   0.3125000000
 -0.1875000000   0.3125000000   0.4375000000
 -0.1875000000   0.4375000000  -0.4375000000
 -0.1875000000   0.4375000000  -0.3125000000
 -0.1875000000   0.4375000000  -0.1875000000
 -0.1875000000   0.4375000000  -0.0625000000
 -0.1875000000   0.4375000000   0.0625000000
 -0.1875000000   0.4375000000   0.1875000000
 -0.1875000000   0.4375000000   0.3125000000
 -0.1875000000   0.4375000000   0.4375000000
 -0.0625000000  -0.4375000000  -0.4375000000
 -0.0625000000  -0.4375000000  -0.3125000000
 -0.0625000000  -0.4375000000  -0.1875000000
 -0.0625000000  -0.4375000000  -0.0625000000
 -0.0625000000  -0.4375000000   0.0625000000
 -0.0625000000  -0.4375000000   0.1875000000
 -0.0625000000  -0.4375000000   0.3125000000
 -0.0625000000  -0.4375000000   0.4375000000
 -0.0625000000  -0.3125000000  -0.4375000000
 -0.0625000000  -0.3125000000  -0.3125000000
 -0.0625000000  -0.3125000000  -0.1875000000
 -0.0625000000  -0.3125000000  -0.0625000000
 -0.0625000000  -0.3125000000   0.0625000000
 -0.0625000000  -0.3125000000   0.1875000000
 -0.0625000000  -0.3125000000   0.3125000000
 -0.0625000000  -0.3125000000   0.4375000000
 -0.0625000000  -0.1875000000  -0.4375000000
 -0.0625000000  -0.1875000000  -0.3125000000
 -0.0625000000  -0.1875000000  -0.1875000000
 -0.0625000000  -0.1875000000  -0.0625000000
 -0.0625000000  -0.1875000000   0.0625000000
 -0.0625000000  -0.1875000000   0.1875000000
 -0.0625000000  -0.1875000000   0.3125000000
 -0.0625000000  -0.1875000000   0.4375000000
 -0.0625000000  -0.0625000000  -0.4375000000
 -0.0625000000  -0.0625000000  -0.3125000000
 -0.0625000000  -0.0625000000  -0.1875000000
 -0.0625000000  -0.0625000000  -0.0625000000
 -0.0625000000  -0.0625000000   0.0625000000
 -0.0625000000  -0.0625000000   0.1875000000
 -0.0625000000  -0.0625000000   0.3125000000
 -0.0625000000  -0.0625000000   0.4375000000
 -0.0625000000   0.0625000000  -0.4375000000
 -0.0625000000   0.0625000000  -0.3125000000
 -0.0625000000   0.0625000000  -0.1875000000
 -0.0625000000   0.0625000000  -0.0625000000
 -0.0625000000   0.0625000000   0.0625000000
 -0.0625000000   0.0625000000   0.1875000000
 -0.0625000000   0.0625000000   0.3125000000
 -0.0625000000   0.0625000000   0.4375000000
 -0.0625000000   0.1875000000  -0.4375000000
 -0.0625000000   0.1875000000  -0.3125000000
 -0.0625000000   0.1875000000  -0.1875000000
 -0.0625000000   0.1875000000  -0.0625000000
 -0.0625000000   0.1875000000   0.0625000000
 -0.0625000000   0.1875000000   0.1875000000
 -0.0625000000   0.1875000000   0.3125000000
 -0.0625000000   0.1875000000   0.4375000000
 -0.0625000000   0.3125000000  -0.4375000000
 -0.0625000000   0.3125000000  -0.3125000000
 -0.0625000000   0.3125000000  -0.1875000000
 -0.0625000000   0.3125000000  -0.0625000000
 -0.0625000000   0.3125000000   0.0625000000
 -0.0625000000   0.3125000000   0.1875000000
 -0.0625000000   0.3125000000   0.3125000000
 -0.0625000000   0.3125000000   0.4375000000
 -0.0625000000   0.4375000000  -0.4375000000
 -0.0625000000   0.4375000000  -0.3125000000
 -0.0625000000   0.4375000000  -0.1875000000
 -0.0625000000   0.4375000000  -0.0625000000
 -0.0625000000   0.4375000000   0.0625000000
 -0.0625000000   0.4375000000   0.1875000000
 -0.0625000000   0.4375000000   0.3125000000
 -0.0625000000   0.4375000000   0.4375000000
  0.0625000000  -0.4375000000  -0.4375000000
  0.0625000000  -0.4375000000  -0.3125000000
  0.0625000000  -0.4375000000  -0.1875000000
  0.0625000000  -0.4375000000  -0.0625000000
  0.0625000000  -0.4375000000   0.0625000000
  0.0625000000  -0.4375000000   0.1875000000
  0.0625000000  -0.4375000000   0.3125000000
  0.0625000000  -0.4375000000   0.4375000000
  0.0625000000  -0.3125000000  -0.4375000000
  0.0625000000  -0.3125000000  -0.3125000000
  0.0625000000  -0.3125000000  -0.1875000000
  0.0625000000  -0.3125000000  -0.0625000000
  0.0625000000  -0.3125000000   0.0625000000
  0.0625000000  -0.3125000000   0.1875000000
  0.0625000000  -0.3125000000   0.3125000000
  0.0625000000  -0.3125000000   0.4375000000
  0.0625000000  -0.1875000000  -0.4375000000
  0.0625000000  -0.1875000000  -0.3125000000
  0.0625000000  -0.1875000000  -0.1875000000
  0.0625000000  -0.1875000000  -0.0625000000
  0.0625000000  -0.1875000000   0.0625000000
  0.0625000000  -0.1875000000   0.1875000000
  0.0625000000  -0.1875000000   0.3125000000
  0.0625000000  -0.1875000000   0.4375000000
  0.0625000000  -0.0625000000  -0.4375000000
  0.0625000000  -0.0625000000  -0.3125000000
  0.0625000000  -0.0625000000  -0.1875000000
  0.0625000000  -0.0625000000  -0.0625000000
  0.0625000000  -0.0625000000   0.0625000000
  0.0625000000  -0.0625000000   0.1875000000
  0.0625000000  -0.0625000000   0.3125000000
  0.0625000000  -0.0625000000   0.4375000000
  0.0625000000   0.0625000000  -0.4375000000
  0.0625000000   0.0625000000  -0.3125000000
  0.0625000000   0.0625000000  -0.1875000000
  0.0625000000   0.0625000000  -0.0625000000
  0.0625000000   0.0625000000   0.0625000000
  0.0625000000   0.0625000000   0.1875000000
  0.0625000000   0.0625000000   0.3125000000
  0.0625000000   0.0625000000   0.4375000000
  0.0625000000   0.1875000000  -0.4375000000
  0.0625000000   0.1875000000  -0.3125000000
  0.0625000000   0.1875000000  -0.1875000000
  0.0625000000   0.1875000000  -0.0625000000
  0.0625000000   0.1875000000   0.0625000000
  0.0625000000   0.1875000000   0.1875000000
  0.0625000000   0.1875000000   0.3125000000
  0.0625000000   0.1875000000   0.4375000000
  0.0625000000   0.3125000000  -0.4375000000
  0.0625000000   0.3125000000  -0.3125000000
  0.0625000000   0.3125000000  -0.1875000000
  0.0625000000   0.3125000000  -0.0625000000
  0.0625000000   0.3125000000   0.0625000000
  0.0625000000   0.3125000000   0.1875000000
  0.0625000000   0.3125000000   0.3125000000
  0.0625000000   0.3125000000   0.4375000000
  0.0625000000   0.4375000000  -0.4375000000
  0.0625000000   0.4375000000  -0.3125000000
  0.0625000000   0.4375000000  -0.1875000000
  0.0625000000   0.4375000000  -0.0625000000
  0.0625000000   0.4375000000   0.0625000000
  0.0625000000   0.4375000000   0.1875000000
  0.0625000000   0.4375000000   0.3125000000
  0.0625000000   0.4375000000   0.4375000000
  0.1875000000  -0.4375000000  -0.4375000000
  0.1875000000  -0.4375000000  -0.3125000000
  0.1875000000  -0.4375000000  -0.1875000000
  0.1875000000  -0.4375000000  -0.0625000000
  0.1875000000  -0.4375000000   0.0625000000
  0.1875000000  -0.4375000000   0.1875000000
  0.1875000000  -0.4375000000   0.3125000000
  0.1875000000  -0.4375000000   0.4375000000
  0.1875000000  -0.3125000000  -0.4375000000
  0.1875000000  -0.3125000000  -0.3125000000
  0.1875000000  -0.3125000000  -0.1875000000
  0.1875000000  -0.3125000000  -0.0625000000
  0.1875000000  -0.3125000000   0.0625000000
  0.1875000000  -0.3125000000   0.1875000000
  0.1875000000  -0.3125000000   0.3125000000
  0.1875000000  -0.3125000000   0.4375000000
  0.1875000000  -0.1875000000  -0.4375000000
  0.1875000000  -0.1875000000  -0.3125000000
  0.1875000000  -0.1875000000  -0.1875000000
  0.1875000000  -0.1875000000  -0.0625000000
  0.1875000000  -0.1875000000   0.0625000000
  0.1875000000  -0.1875000000   0.1875000000
  0.1875000000  -0.1875000000   0.3125000000
  0.1875000000  -0.1875000000   0.4375000000
  0.1875000000  -0.0625000000  -0.4375000000
  0.1875000000  -0.0625000000  -0.3125000000
  0.1875000000  -0.0625000000  -0.1875000000
  0.1875000000  -0.0625000000  -0.0625000000
  0.1875000000  -0.0625000000   0.0625000000
  0.1875000000  -0.0625000000   0.1875000000
  0.1875000000  -0.0625000000   0.3125000000
  0.1875000000  -0.0625000000   0.4375000000
  0.1875000000   0.0625000000  -0.4375000000
  0.1875000000   0.0625000000  -0.3125000000
  0.1875000000   0.0625000000  -0.1875000000
  0.1875000000   0.0625000000  -0.0625000000
  0.1875000000   0.0625000000   0.0625000000
  0.1875000000   0.0625000000   0.1875000000
  0.1875000000   0.0625000000   0.3125000000
  0.1875000000   0.0625000000   0.4375000000
  0.1875000000   0.1875000000  -0.4375000000
  0.1875000000   0.1875000000  -0.3125000000
  0.1875000000   0.1875000000  -0.1875000000
  0.1875000000   0.1875000000  -0.0625000000
  0.1875000000   0.1875000000   0.0625000000
  0.1875000000   0.1875000000   0.1875000000
  0.1875000000   0.1875000000   0.3125000000
  0.1875000000   0.1875000000   0.4375000000
  0.1875000000   0.3125000000  -0.4375000000
  0.1875000000   0.3125000000  -0.3125000000
  0.1875000000   0.3125000000  -0.1875000000
  0.1875000000   0.3125000000  -0.0625000000
  0.1875000000   0.3125000000   0.0625000000
  0.1875000000   0.3125000000   0.1875000000
  0.1875000000   0.3125000000   0.3125000000
  0.1875000000   0.3125000000   0.4375000000
  0.1875000000   0.4375000000  -0.4375000000
  0.1875000000   0.4375000000  -0.3125000000
  0.1875000000   0.4375000000  -0.1875000000
  0.1875000000   0.4375000000  -0.0625000000
  0.1875000000   0.4375000000   0.0625000000
  0.1875000000   0.4375000000   0.1875000000
  0.1875000000   0.4375000000   0.3125000000
  0.1875000000   0.4375000000   0.4375000000
  0.3125000000  -0.4375000000  -0.4375000000
  0.3125000000  -0.4375000000  -0.3125000000
  0.3125000000  -0.4375000000  -0.1875000000
  0.3125000000  -0.4375000000  -0.0625000000
  0.3125000000  -0.4375000000   0.0625000000
  0.3125000000  -0.4375000000   0.1875000000
  0.3125000000  -0.4375000000   0.3125000000
  0.3125000000  -0.4375000000   0.4375000000
  0.3125000000  -0.3125000000  -0.4375000000
  0.3125000000  -0.3125000000  -0.3125000000
  0.3125000000  -0.3125000000  -0.1875000000
  0.3125000000  -0.3125000000  -0.0625000000
  0.3125000000  -0.3125000000   0.0625000000
  0.3125000000  -0.3125000000   0.1875000000
  0.3125000000  -0.3125000000   0.3125000000
  0.3125000000  -0.3125000000   0.4375000000
  0.3125000000  -0.1875000000  -0.4375000000
  0.3125000000  -0.1875000000  -0.3125000000
  0.3125000000  -0.1875000000  -0.1875000000
  0.3125000000  -0.1875000000  -0.0625000000
  0.3125000000  -0.1875000000   0.0625000000
  0.3125000000  -0.1875000000   0.1875000000
  0.3125000000  -0.1875000000   0.3125000000
  0.3125000000  -0.1875000000   0.4375000000
  0.3125000000  -0.0625000000  -0.4375000000
  0.3125000000  -0.0625000000  -0.3125000000
  0.3125000000  -0.0625000000  -0.1875000000
  0.3125000000  -0.0625000000  -0.0625000000
  0.3125000000  -0.0625000000   0.0625000000
  0.3125000000  -0.0625000000   0.1875000000
  0.3125000000  -0.0625000000   0.3125000000
  0.3125000000  -0.0625000000   0.4375000000
  0.3125000000   0.0625000000  -0.4375000000
  0.3125000000   0.0625000000  -0.3125000000
  0.3125000000   0.0625000000  -0.1875000000
  0.3125000000   0.0625000000  -0.0625000000
  0.3125000000   0.0625000000   0.0625000000
  0.3125000000   0.0625000000   0.1875000000
  0.3125000000   0.0625000000   0.3125000000
  0.3125000000   0.0625000000   0.4375000000
  0.3125000000   0.1875000000  -0.4375000000
  0.3125000000   0.1875000000  -0.3125000000
  0.3125000000   0.1875000000  -0.1875000000
  0.3125000000   0.1875000000  -0.0625000000
  0.3125000000   0.1875000000   0.0625000000
  0.3125000000   0.1875000000   0.1875000000
  0.3125000000   0.1875000000   0.3125000000
  0.3125000000   0.1875000000   0.4375000000
  0.3125000000   0.3125000000  -0.4375000000
  0.3125000000   0.3125000000  -0.3125000000
  0.3125000000   0.3125000000  -0.1875000000
  0.3125000000   0.3125000000  -0.0625000000
  0.3125000000   0.3125000000   0.0625000000
  0.3125000000   0.3125000000   0.1875000000
  0.3125000000   0.3125000000   0.3125000000
  0.3125000000   0.3125000000   0.4375000000
  0.3125000000   0.4375000000  -0.4375000000
  0.3125000000   0.4375000000  -0.3125000000
  0.3125000000   0.4375000000  -0.1875000000
  0.3125000000   0.4375000000  -0.0625000000
  0.3125000000   0.4375000000   0.0625000000
  0.3125000000   0.4375000000   0.1875000000
  0.3125000000   0.4375000000   0.3125000000
  0.3125000000   0.4375000000   0.4375000000
  0.4375000000  -0.4375000000  -0.4375000000
  0.4375000000  -0.4375000000  -0.3125000000
  0.4375000000  -0.4375000000  -0.1875000000
  0.4375000000  -0.4375000000  -0.0625000000
  0.4375000000  -0.4375000000   0.0625000000
  0.4375000000  -0.4375000000   0.1875000000
  0.4375000000  -0.4375000000   0.3125000000
  0.4375000000  -0.4375000000   0.4375000000
  0.4375000000  -0.3125000000  -0.4375000000
  0.4375000000  -0.3125000000  -0.3125000000
  0.4375000000  -0.3125000000  -0.1875000000
  0.4375000000  -0.3125000000  -0.0625000000
  0.4375000000  -0.3125000000   0.0625000000
  0.4375000000  -0.3125000000   0.1875000000
  0.4375000000  -0.3125000000   0.3125000000
  0.4375000000  -0.3125000000   0.4375000000
  0.4375000000  -0.1875000000  -0.4375000000
  0.4375000000  -0.1875000000  -0.3125000000
  0.4375000000  -0.1875000000  -0.1875000000
  0.4375000000  -0.1875000000  -0.0625000000
  0.4375000000  -0.1875000000   0.0625000000
  0.4375000000  -0.1875000000   0.1875000000
  0.4375000000  -0.1875000000   0.3125000000
  0.4375000000  -0.1875000000   0.4375000000
  0.4375000000  -0.0625000000  -0.4375000000
  0.4375000000  -0.0625000000  -0.3125000000
  0.4375000000  -0.0625000000  -0.1875000000
  0.4375000000  -0.0625000000  -0.0625000000
  0.4375000000  -0.0625000000   0.0625000000
  0.4375000000  -0.0625000000   0.1875000000
  0.4375000000  -0.0625000000   0.3125000000
  0.4375000000  -0.0625000000   0.4375000000
  0.4375000000   0.0625000000  -0.4375000000
  0.4375000000   0.0625000000  -0.3125000000
  0.4375000000   0.0625000000  -0.1875000000
  0.4375000000   0.0625000000  -0.0625000000
  0.4375000000   0.0625000000   0.0625000000
  0.4375000000   0.0625000000   0.1875000000
  0.4375000000   0.0625000000   0.3125000000
  0.4375000000   0.0625000000   0.4375000000
  0.4375000000   0.1875000000  -0.4375000000
  0.4375000000   0.1875000000  -0.3125000000
  0.4375000000   0.1875000000  -0.1875000000
  0.4375000000   0.1875000000  -0.0625000000
  0.4375000000   0.1875000000   0.0625000000
  0.4375000000   0.1875000000   0.1875000000
  0.4375000000   0.1875000000   0.3125000000
  0.4375000000   0.1875000000   0.4375000000
  0.4375000000   0.3125000000  -0.4375000000
  0.4375000000   0.3125000000  -0.3125000000
  0.4375000000   0.3125000000  -0.1875000000
  0.4375000000   0.3125000000  -0.0625000000
  0.4375000000   0.3125000000   0.0625000000
  0.4375000000   0.3125000000   0.1875000000
  0.4375000000   0.3125000000   0.3125000000
  0.4375000000   0.3125000000   0.4375000000
  0.4375000000   0.4375000000  -0.4375000000
  0.4375000000   0.4375000000  -0.3125000000
  0.4375000000   0.4375000000  -0.1875000000
  0.4375000000   0.4375000000  -0.0625000000
  0.4375000000   0.4375000000   0.0625000000
  0.4375000000   0.4375000000   0.1875000000
  0.4375000000   0.4375000000   0.3125000000
  0.4375000000   0.4375000000   0.4375000000
end kpoints
