begin projections
Li:sp3
Co:d
end projections

hr_plot = True
spinors = False
write_xyz = True
translate_home_cell = True

num_bands       = 27
exclude_bands : 1,2,3,4,5,6,7,8,9,10,11,12,13,14,15,16,17,18,19,20,21,22,23,24

guiding_centres = True
num_wann        = 27
num_iter        = 1000


begin unit_cell_cart
  2.8361800000   0.0000000000   0.0000000000
 -1.4180900000   2.4562039297   0.0000000000
  0.0000000000   0.0000000000  14.1505700000
end unit_cell_cart

begin atoms_frac
Li  0.0000000000   0.0000000000   0.0000000000
Li  0.6666666667   0.3333333333   0.3333333333
Li  0.3333333333   0.6666666667   0.6666666667
Co  0.0000000000   0.0000000000   0.5000000000
Co  0.6666666667   0.3333333333   0.8333333333
Co  0.3333333333   0.6666666667   0.1666666667
O  0.0000000000   0.0000000000   0.2396000000
O  0.0000000000   0.0000000000   0.7604000000
O  0.6666666667   0.3333333333   0.5729333333
O  0.6666666667   0.3333333333   0.0937333333
O  0.3333333333   0.6666666667   0.9062666667
O  0.3333333333   0.6666666667   0.4270666667
end atoms_frac

mp_grid = 6 6 6

begin kpoints
 -0.3333333333  -0.3333333333  -0.3333333333
 -0.3333333333  -0.3333333333  -0.1666666667
 -0.3333333333  -0.3333333333   0.0000000000
 -0.3333333333  -0.3333333333   0.1666666667
 -0.3333333333  -0.3333333333   0.3333333333
 -0.3333333333  -0.3333333333   0.5000000000
 -0.3333333333  -0.1666666667  -0.3333333333
 -0.3333333333  -0.1666666667  -0.1666666667
 -0.3333333333  -0.1666666667   0.0000000000
 -0.3333333333  -0.1666666667   0.1666666667
 -0.3333333333  -0.1666666667   0.3333333333
 -0.3333333333  -0.1666666667   0.5000000000
 -0.3333333333   0.0000000000  -0.3333333333
 -0.3333333333   0.0000000000  -0.1666666667
 -0.3333333333   0.0000000000   0.0000000000
 -0.3333333333   0.0000000000   0.1666666667
 -0.3333333333   0.0000000000   0.3333333333
 -0.3333333333   0.0000000000   0.5000000000
 -0.3333333333   0.1666666667  -0.3333333333
 -0.3333333333   0.1666666667  -0.1666666667
 -0.3333333333   0.1666666667   0.0000000000
 -0.3333333333   0.1666666667   0.1666666667
 -0.3333333333   0.1666666667   0.3333333333
 -0.3333333333   0.1666666667   0.5000000000
 -0.3333333333   0.3333333333  -0.3333333333
 -0.3333333333   0.3333333333  -0.1666666667
 -0.3333333333   0.3333333333   0.0000000000
 -0.3333333333   0.3333333333   0.1666666667
 -0.3333333333   0.3333333333   0.3333333333
 -0.3333333333   0.3333333333   0.5000000000
 -0.3333333333   0.5000000000  -0.3333333333
 -0.3333333333   0.5000000000  -0.1666666667
 -0.3333333333   0.5000000000   0.0000000000
 -0.3333333333   0.5000000000   0.1666666667
 -0.3333333333   0.5000000000   0.3333333333
 -0.3333333333   0.5000000000   0.5000000000
 -0.1666666667  -0.3333333333  -0.3333333333
 -0.1666666667  -0.3333333333  -0.1666666667
 -0.1666666667  -0.3333333333   0.0000000000
 -0.1666666667  -0.3333333333   0.1666666667
 -0.1666666667  -0.3333333333   0.3333333333
 -0.1666666667  -0.3333333333   0.5000000000
 -0.1666666667  -0.1666666667  -0.3333333333
 -0.1666666667  -0.1666666667  -0.1666666667
 -0.1666666667  -0.1666666667   0.0000000000
 -0.1666666667  -0.1666666667   0.1666666667
 -0.1666666667  -0.1666666667   0.3333333333
 -0.1666666667  -0.1666666667   0.5000000000
 -0.1666666667   0.0000000000  -0.3333333333
 -0.1666666667   0.0000000000  -0.1666666667
 -0.1666666667   0.0000000000   0.0000000000
 -0.1666666667   0.0000000000   0.1666666667
 -0.1666666667   0.0000000000   0.3333333333
 -0.1666666667   0.0000000000   0.5000000000
 -0.1666666667   0.1666666667  -0.3333333333
 -0.1666666667   0.1666666667  -0.1666666667
 -0.1666666667   0.1666666667   0.0000000000
 -0.1666666667   0.1666666667   0.1666666667
 -0.1666666667   0.1666666667   0.3333333333
 -0.1666666667   0.1666666667   0.5000000000
 -0.1666666667   0.3333333333  -0.3333333333
 -0.1666666667   0.3333333333  -0.1666666667
 -0.1666666667   0.3333333333   0.0000000000
 -0.1666666667   0.3333333333   0.1666666667
 -0.1666666667   0.3333333333   0.3333333333
 -0.1666666667   0.3333333333   0.5000000000
 -0.1666666667   0.5000000000  -0.3333333333
 -0.1666666667   0.5000000000  -0.1666666667
 -0.1666666667   0.5000000000   0.0000000000
 -0.1666666667   0.5000000000   0.1666666667
 -0.1666666667   0.5000000000   0.3333333333
 -0.1666666667   0.5000000000   0.5000000000
  0.0000000000  -0.3333333333  -0.3333333333
  0.0000000000  -0.3333333333  -0.1666666667
  0.0000000000  -0.3333333333   0.0000000000
  0.0000000000  -0.3333333333   0.1666666667
  0.0000000000  -0.3333333333   0.3333333333
  0.0000000000  -0.3333333333   0.5000000000
  0.0000000000  -0.1666666667  -0.3333333333
  0.0000000000  -0.1666666667  -0.1666666667
  0.0000000000  -0.1666666667   0.0000000000
  0.0000000000  -0.1666666667   0.1666666667
  0.0000000000  -0.1666666667   0.3333333333
  0.0000000000  -0.1666666667   0.5000000000
  0.0000000000   0.0000000000  -0.3333333333
  0.0000000000   0.0000000000  -0.1666666667
  0.0000000000   0.0000000000   0.0000000000
  0.0000000000   0.0000000000   0.1666666667
  0.0000000000   0.0000000000   0.3333333333
  0.0000000000   0.0000000000   0.5000000000
  0.0000000000   0.1666666667  -0.3333333333
  0.0000000000   0.1666666667  -0.1666666667
  0.0000000000   0.1666666667   0.0000000000
  0.0000000000   0.1666666667   0.1666666667
  0.0000000000   0.1666666667   0.3333333333
  0.0000000000   0.1666666667   0.5000000000
  0.0000000000   0.3333333333  -0.3333333333
  0.0000000000   0.3333333333  -0.1666666667
  0.0000000000   0.3333333333   0.0000000000
  0.0000000000   0.3333333333   0.1666666667
  0.0000000000   0.3333333333   0.3333333333
  0.0000000000   0.3333333333   0.5000000000
  0.0000000000   0.5000000000  -0.3333333333
  0.0000000000   0.5000000000  -0.1666666667
  0.0000000000   0.5000000000   0.0000000000
  0.0000000000   0.5000000000   0.1666666667
  0.0000000000   0.5000000000   0.3333333333
  0.0000000000   0.5000000000   0.5000000000
  0.1666666667  -0.3333333333  -0.3333333333
  0.1666666667  -0.3333333333  -0.1666666667
  0.1666666667  -0.3333333333   0.0000000000
  0.1666666667  -0.3333333333   0.1666666667
  0.1666666667  -0.3333333333   0.3333333333
  0.1666666667  -0.3333333333   0.5000000000
  0.1666666667  -0.1666666667  -0.3333333333
  0.1666666667  -0.1666666667  -0.1666666667
  0.1666666667  -0.1666666667   0.0000000000
  0.1666666667  -0.1666666667   0.1666666667
  0.1666666667  -0.1666666667   0.3333333333
  0.1666666667  -0.1666666667   0.5000000000
  0.1666666667   0.0000000000  -0.3333333333
  0.1666666667   0.0000000000  -0.1666666667
  0.1666666667   0.0000000000   0.0000000000
  0.1666666667   0.0000000000   0.1666666667
  0.1666666667   0.0000000000   0.3333333333
  0.1666666667   0.0000000000   0.5000000000
  0.1666666667   0.1666666667  -0.3333333333
  0.1666666667   0.1666666667  -0.1666666667
  0.1666666667   0.1666666667   0.0000000000
  0.1666666667   0.1666666667   0.1666666667
  0.1666666667   0.1666666667   0.3333333333
  0.1666666667   0.1666666667   0.5000000000
  0.1666666667   0.3333333333  -0.3333333333
  0.1666666667   0.3333333333  -0.1666666667
  0.1666666667   0.3333333333   0.0000000000
  0.1666666667   0.3333333333   0.1666666667
  0.1666666667   0.3333333333   0.3333333333
  0.1666666667   0.3333333333   0.5000000000
  0.1666666667   0.5000000000  -0.3333333333
  0.1666666667   0.5000000000  -0.1666666667
  0.1666666667   0.5000000000   0.0000000000
  0.1666666667   0.5000000000   0.1666666667
  0.1666666667   0.5000000000   0.3333333333
  0.1666666667   0.5000000000   0.5000000000
  0.3333333333  -0.3333333333  -0.3333333333
  0.3333333333  -0.3333333333  -0.1666666667
  0.3333333333  -0.3333333333   0.0000000000
  0.3333333333  -0.3333333333   0.1666666667
  0.3333333333  -0.3333333333   0.3333333333
  0.3333333333  -0.3333333333   0.5000000000
  0.3333333333  -0.1666666667  -0.3333333333
  0.3333333333  -0.1666666667  -0.1666666667
  0.3333333333  -0.1666666667   0.0000000000
  0.3333333333  -0.1666666667   0.1666666667
  0.3333333333  -0.1666666667   0.3333333333
  0.3333333333  -0.1666666667   0.5000000000
  0.3333333333   0.0000000000  -0.3333333333
  0.3333333333   0.0000000000  -0.1666666667
  0.3333333333   0.0000000000   0.0000000000
  0.3333333333   0.0000000000   0.1666666667
  0.3333333333   0.0000000000   0.3333333333
  0.3333333333   0.0000000000   0.5000000000
  0.3333333333   0.1666666667  -0.3333333333
  0.3333333333   0.1666666667  -0.1666666667
  0.3333333333   0.1666666667   0.0000000000
  0.3333333333   0.1666666667   0.1666666667
  0.3333333333   0.1666666667   0.3333333333
  0.3333333333   0.1666666667   0.5000000000
  0.3333333333   0.3333333333  -0.3333333333
  0.3333333333   0.3333333333  -0.1666666667
  0.3333333333   0.3333333333   0.0000000000
  0.3333333333   0.3333333333   0.1666666667
  0.3333333333   0.3333333333   0.3333333333
  0.3333333333   0.3333333333   0.5000000000
  0.3333333333   0.5000000000  -0.3333333333
  0.3333333333   0.5000000000  -0.1666666667
  0.3333333333   0.5000000000   0.0000000000
  0.3333333333   0.5000000000   0.1666666667
  0.3333333333   0.5000000000   0.3333333333
  0.3333333333   0.5000000000   0.5000000000
  0.5000000000  -0.3333333333  -0.3333333333
  0.5000000000  -0.3333333333  -0.1666666667
  0.5000000000  -0.3333333333   0.0000000000
  0.5000000000  -0.3333333333   0.1666666667
  0.5000000000  -0.3333333333   0.3333333333
  0.5000000000  -0.3333333333   0.5000000000
  0.5000000000  -0.1666666667  -0.3333333333
  0.5000000000  -0.1666666667  -0.1666666667
  0.5000000000  -0.1666666667   0.0000000000
  0.5000000000  -0.1666666667   0.1666666667
  0.5000000000  -0.1666666667   0.3333333333
  0.5000000000  -0.1666666667   0.5000000000
  0.5000000000   0.0000000000  -0.3333333333
  0.5000000000   0.0000000000  -0.1666666667
  0.5000000000   0.0000000000   0.0000000000
  0.5000000000   0.0000000000   0.1666666667
  0.5000000000   0.0000000000   0.3333333333
  0.5000000000   0.0000000000   0.5000000000
  0.5000000000   0.1666666667  -0.3333333333
  0.5000000000   0.1666666667  -0.1666666667
  0.5000000000   0.1666666667   0.0000000000
  0.5000000000   0.1666666667   0.1666666667
  0.5000000000   0.1666666667   0.3333333333
  0.5000000000   0.1666666667   0.5000000000
  0.5000000000   0.3333333333  -0.3333333333
  0.5000000000   0.3333333333  -0.1666666667
  0.5000000000   0.3333333333   0.0000000000
  0.5000000000   0.3333333333   0.1666666667
  0.5000000000   0.3333333333   0.3333333333
  0.5000000000   0.3333333333   0.5000000000
  0.5000000000   0.5000000000  -0.3333333333
  0.5000000000   0.5000000000  -0.1666666667
  0.5000000000   0.5000000000   0.0000000000
  0.5000000000   0.5000000000   0.1666666667
  0.5000000000   0.5000000000   0.3333333333
  0.5000000000   0.5000000000   0.5000000000
end kpoints
