begin projections
f=0.50, 0.50, 0.50 : s # n = 2, l = 0
f=0.50, 0.50, 0.50 : s # n = 2, l = 1
f=0.50, 0.50, 0.50 : s # n = 2, l = 1
f=0.50, 0.50, 0.50 : s # n = 2, l = 1
f=0.00, 0.00, 0.00 : s # n = 4, l = 0
f=0.00, 0.00, 0.00 : s # n = 4, l = 1
f=0.00, 0.00, 0.00 : s # n = 4, l = 1
f=0.00, 0.00, 0.00 : s # n = 4, l = 1
f=0.00, 0.00, 0.00 : s # n = 3, l = 2
f=0.00, 0.00, 0.00 : s # n = 3, l = 2
f=0.00, 0.00, 0.00 : s # n = 3, l = 2
f=0.00, 0.00, 0.00 : s # n = 3, l = 2
f=0.00, 0.00, 0.00 : s # n = 3, l = 2
f=0.74, 0.74, 0.74 : s # n = 2, l = 0
f=0.74, 0.74, 0.74 : s # n = 2, l = 1
f=0.74, 0.74, 0.74 : s # n = 2, l = 1
f=0.74, 0.74, 0.74 : s # n = 2, l = 1
f=0.26, 0.26, 0.26 : s # n = 2, l = 0
f=0.26, 0.26, 0.26 : s # n = 2, l = 1
f=0.26, 0.26, 0.26 : s # n = 2, l = 1
f=0.26, 0.26, 0.26 : s # n = 2, l = 1
end projections

spinors = False
write_xyz = True
translate_home_cell = True
hr_plot = True
num_bands       = 31

guiding_centres = True
num_wann        = 21
num_iter        = 1000

fermi_energy  = 6.869
dis_froz_max  = 18
dis_num_iter  = 200
dis_mix_ratio = 0.5

begin unit_cell_cart
  4.9927100000   0.0000000000   0.0000000000
  4.1872389313   2.7192247565   0.0000000000
  4.1872389313   1.2403166781   2.4198755783
end unit_cell_cart

begin atoms_frac
Li  0.5000000000   0.5000000000   0.5000000000
Co  0.0000000000   0.0000000000   0.0000000000
O  0.7395870000   0.7395870000   0.7395870000
O  0.2604130000   0.2604130000   0.2604130000
end atoms_frac

mp_grid = 7 7 7

begin kpoints
 -0.4285714286  -0.4285714286  -0.4285714286
 -0.4285714286  -0.4285714286  -0.2857142857
 -0.4285714286  -0.4285714286  -0.1428571429
 -0.4285714286  -0.4285714286   0.0000000000
 -0.4285714286  -0.4285714286   0.1428571429
 -0.4285714286  -0.4285714286   0.2857142857
 -0.4285714286  -0.4285714286   0.4285714286
 -0.4285714286  -0.2857142857  -0.4285714286
 -0.4285714286  -0.2857142857  -0.2857142857
 -0.4285714286  -0.2857142857  -0.1428571429
 -0.4285714286  -0.2857142857   0.0000000000
 -0.4285714286  -0.2857142857   0.1428571429
 -0.4285714286  -0.2857142857   0.2857142857
 -0.4285714286  -0.2857142857   0.4285714286
 -0.4285714286  -0.1428571429  -0.4285714286
 -0.4285714286  -0.1428571429  -0.2857142857
 -0.4285714286  -0.1428571429  -0.1428571429
 -0.4285714286  -0.1428571429   0.0000000000
 -0.4285714286  -0.1428571429   0.1428571429
 -0.4285714286  -0.1428571429   0.2857142857
 -0.4285714286  -0.1428571429   0.4285714286
 -0.4285714286   0.0000000000  -0.4285714286
 -0.4285714286   0.0000000000  -0.2857142857
 -0.4285714286   0.0000000000  -0.1428571429
 -0.4285714286   0.0000000000   0.0000000000
 -0.4285714286   0.0000000000   0.1428571429
 -0.4285714286   0.0000000000   0.2857142857
 -0.4285714286   0.0000000000   0.4285714286
 -0.4285714286   0.1428571429  -0.4285714286
 -0.4285714286   0.1428571429  -0.2857142857
 -0.4285714286   0.1428571429  -0.1428571429
 -0.4285714286   0.1428571429   0.0000000000
 -0.4285714286   0.1428571429   0.1428571429
 -0.4285714286   0.1428571429   0.2857142857
 -0.4285714286   0.1428571429   0.4285714286
 -0.4285714286   0.2857142857  -0.4285714286
 -0.4285714286   0.2857142857  -0.2857142857
 -0.4285714286   0.2857142857  -0.1428571429
 -0.4285714286   0.2857142857   0.0000000000
 -0.4285714286   0.2857142857   0.1428571429
 -0.4285714286   0.2857142857   0.2857142857
 -0.4285714286   0.2857142857   0.4285714286
 -0.4285714286   0.4285714286  -0.4285714286
 -0.4285714286   0.4285714286  -0.2857142857
 -0.4285714286   0.4285714286  -0.1428571429
 -0.4285714286   0.4285714286   0.0000000000
 -0.4285714286   0.4285714286   0.1428571429
 -0.4285714286   0.4285714286   0.2857142857
 -0.4285714286   0.4285714286   0.4285714286
 -0.2857142857  -0.4285714286  -0.4285714286
 -0.2857142857  -0.4285714286  -0.2857142857
 -0.2857142857  -0.4285714286  -0.1428571429
 -0.2857142857  -0.4285714286   0.0000000000
 -0.2857142857  -0.4285714286   0.1428571429
 -0.2857142857  -0.4285714286   0.2857142857
 -0.2857142857  -0.4285714286   0.4285714286
 -0.2857142857  -0.2857142857  -0.4285714286
 -0.2857142857  -0.2857142857  -0.2857142857
 -0.2857142857  -0.2857142857  -0.1428571429
 -0.2857142857  -0.2857142857   0.0000000000
 -0.2857142857  -0.2857142857   0.1428571429
 -0.2857142857  -0.2857142857   0.2857142857
 -0.2857142857  -0.2857142857   0.4285714286
 -0.2857142857  -0.1428571429  -0.4285714286
 -0.2857142857  -0.1428571429  -0.2857142857
 -0.2857142857  -0.1428571429  -0.1428571429
 -0.2857142857  -0.1428571429   0.0000000000
 -0.2857142857  -0.1428571429   0.1428571429
 -0.2857142857  -0.1428571429   0.2857142857
 -0.2857142857  -0.1428571429   0.4285714286
 -0.2857142857   0.0000000000  -0.4285714286
 -0.2857142857   0.0000000000  -0.2857142857
 -0.2857142857   0.0000000000  -0.1428571429
 -0.2857142857   0.0000000000   0.0000000000
 -0.2857142857   0.0000000000   0.1428571429
 -0.2857142857   0.0000000000   0.2857142857
 -0.2857142857   0.0000000000   0.4285714286
 -0.2857142857   0.1428571429  -0.4285714286
 -0.2857142857   0.1428571429  -0.2857142857
 -0.2857142857   0.1428571429  -0.1428571429
 -0.2857142857   0.1428571429   0.0000000000
 -0.2857142857   0.1428571429   0.1428571429
 -0.2857142857   0.1428571429   0.2857142857
 -0.2857142857   0.1428571429   0.4285714286
 -0.2857142857   0.2857142857  -0.4285714286
 -0.2857142857   0.2857142857  -0.2857142857
 -0.2857142857   0.2857142857  -0.1428571429
 -0.2857142857   0.2857142857   0.0000000000
 -0.2857142857   0.2857142857   0.1428571429
 -0.2857142857   0.2857142857   0.2857142857
 -0.2857142857   0.2857142857   0.4285714286
 -0.2857142857   0.4285714286  -0.4285714286
 -0.2857142857   0.4285714286  -0.2857142857
 -0.2857142857   0.4285714286  -0.1428571429
 -0.2857142857   0.4285714286   0.0000000000
 -0.2857142857   0.4285714286   0.1428571429
 -0.2857142857   0.4285714286   0.2857142857
 -0.2857142857   0.4285714286   0.4285714286
 -0.1428571429  -0.4285714286  -0.4285714286
 -0.1428571429  -0.4285714286  -0.2857142857
 -0.1428571429  -0.4285714286  -0.1428571429
 -0.1428571429  -0.4285714286   0.0000000000
 -0.1428571429  -0.4285714286   0.1428571429
 -0.1428571429  -0.4285714286   0.2857142857
 -0.1428571429  -0.4285714286   0.4285714286
 -0.1428571429  -0.2857142857  -0.4285714286
 -0.1428571429  -0.2857142857  -0.2857142857
 -0.1428571429  -0.2857142857  -0.1428571429
 -0.1428571429  -0.2857142857   0.0000000000
 -0.1428571429  -0.2857142857   0.1428571429
 -0.1428571429  -0.2857142857   0.2857142857
 -0.1428571429  -0.2857142857   0.4285714286
 -0.1428571429  -0.1428571429  -0.4285714286
 -0.1428571429  -0.1428571429  -0.2857142857
 -0.1428571429  -0.1428571429  -0.1428571429
 -0.1428571429  -0.1428571429   0.0000000000
 -0.1428571429  -0.1428571429   0.1428571429
 -0.1428571429  -0.1428571429   0.2857142857
 -0.1428571429  -0.1428571429   0.4285714286
 -0.1428571429   0.0000000000  -0.4285714286
 -0.1428571429   0.0000000000  -0.2857142857
 -0.1428571429   0.0000000000  -0.1428571429
 -0.1428571429   0.0000000000   0.0000000000
 -0.1428571429   0.0000000000   0.1428571429
 -0.1428571429   0.0000000000   0.2857142857
 -0.1428571429   0.0000000000   0.4285714286
 -0.1428571429   0.1428571429  -0.4285714286
 -0.1428571429   0.1428571429  -0.2857142857
 -0.1428571429   0.1428571429  -0.1428571429
 -0.1428571429   0.1428571429   0.0000000000
 -0.1428571429   0.1428571429   0.1428571429
 -0.1428571429   0.1428571429   0.2857142857
 -0.1428571429   0.1428571429   0.4285714286
 -0.1428571429   0.2857142857  -0.4285714286
 -0.1428571429   0.2857142857  -0.2857142857
 -0.1428571429   0.2857142857  -0.1428571429
 -0.1428571429   0.2857142857   0.0000000000
 -0.1428571429   0.2857142857   0.1428571429
 -0.1428571429   0.2857142857   0.2857142857
 -0.1428571429   0.2857142857   0.4285714286
 -0.1428571429   0.4285714286  -0.4285714286
 -0.1428571429   0.4285714286  -0.2857142857
 -0.1428571429   0.4285714286  -0.1428571429
 -0.1428571429   0.4285714286   0.0000000000
 -0.1428571429   0.4285714286   0.1428571429
 -0.1428571429   0.4285714286   0.2857142857
 -0.1428571429   0.4285714286   0.4285714286
  0.0000000000  -0.4285714286  -0.4285714286
  0.0000000000  -0.4285714286  -0.2857142857
  0.0000000000  -0.4285714286  -0.1428571429
  0.0000000000  -0.4285714286   0.0000000000
  0.0000000000  -0.4285714286   0.1428571429
  0.0000000000  -0.4285714286   0.2857142857
  0.0000000000  -0.4285714286   0.4285714286
  0.0000000000  -0.2857142857  -0.4285714286
  0.0000000000  -0.2857142857  -0.2857142857
  0.0000000000  -0.2857142857  -0.1428571429
  0.0000000000  -0.2857142857   0.0000000000
  0.0000000000  -0.2857142857   0.1428571429
  0.0000000000  -0.2857142857   0.2857142857
  0.0000000000  -0.2857142857   0.4285714286
  0.0000000000  -0.1428571429  -0.4285714286
  0.0000000000  -0.1428571429  -0.2857142857
  0.0000000000  -0.1428571429  -0.1428571429
  0.0000000000  -0.1428571429   0.0000000000
  0.0000000000  -0.1428571429   0.1428571429
  0.0000000000  -0.1428571429   0.2857142857
  0.0000000000  -0.1428571429   0.4285714286
  0.0000000000   0.0000000000  -0.4285714286
  0.0000000000   0.0000000000  -0.2857142857
  0.0000000000   0.0000000000  -0.1428571429
  0.0000000000   0.0000000000   0.0000000000
  0.0000000000   0.0000000000   0.1428571429
  0.0000000000   0.0000000000   0.2857142857
  0.0000000000   0.0000000000   0.4285714286
  0.0000000000   0.1428571429  -0.4285714286
  0.0000000000   0.1428571429  -0.2857142857
  0.0000000000   0.1428571429  -0.1428571429
  0.0000000000   0.1428571429   0.0000000000
  0.0000000000   0.1428571429   0.1428571429
  0.0000000000   0.1428571429   0.2857142857
  0.0000000000   0.1428571429   0.4285714286
  0.0000000000   0.2857142857  -0.4285714286
  0.0000000000   0.2857142857  -0.2857142857
  0.0000000000   0.2857142857  -0.1428571429
  0.0000000000   0.2857142857   0.0000000000
  0.0000000000   0.2857142857   0.1428571429
  0.0000000000   0.2857142857   0.2857142857
  0.0000000000   0.2857142857   0.4285714286
  0.0000000000   0.4285714286  -0.4285714286
  0.0000000000   0.4285714286  -0.2857142857
  0.0000000000   0.4285714286  -0.1428571429
  0.0000000000   0.4285714286   0.0000000000
  0.0000000000   0.4285714286   0.1428571429
  0.0000000000   0.4285714286   0.2857142857
  0.0000000000   0.4285714286   0.4285714286
  0.1428571429  -0.4285714286  -0.4285714286
  0.1428571429  -0.4285714286  -0.2857142857
  0.1428571429  -0.4285714286  -0.1428571429
  0.1428571429  -0.4285714286   0.0000000000
  0.1428571429  -0.4285714286   0.1428571429
  0.1428571429  -0.4285714286   0.2857142857
  0.1428571429  -0.4285714286   0.4285714286
  0.1428571429  -0.2857142857  -0.4285714286
  0.1428571429  -0.2857142857  -0.2857142857
  0.1428571429  -0.2857142857  -0.1428571429
  0.1428571429  -0.2857142857   0.0000000000
  0.1428571429  -0.2857142857   0.1428571429
  0.1428571429  -0.2857142857   0.2857142857
  0.1428571429  -0.2857142857   0.4285714286
  0.1428571429  -0.1428571429  -0.4285714286
  0.1428571429  -0.1428571429  -0.2857142857
  0.1428571429  -0.1428571429  -0.1428571429
  0.1428571429  -0.1428571429   0.0000000000
  0.1428571429  -0.1428571429   0.1428571429
  0.1428571429  -0.1428571429   0.2857142857
  0.1428571429  -0.1428571429   0.4285714286
  0.1428571429   0.0000000000  -0.4285714286
  0.1428571429   0.0000000000  -0.2857142857
  0.1428571429   0.0000000000  -0.1428571429
  0.1428571429   0.0000000000   0.0000000000
  0.1428571429   0.0000000000   0.1428571429
  0.1428571429   0.0000000000   0.2857142857
  0.1428571429   0.0000000000   0.4285714286
  0.1428571429   0.1428571429  -0.4285714286
  0.1428571429   0.1428571429  -0.2857142857
  0.1428571429   0.1428571429  -0.1428571429
  0.1428571429   0.1428571429   0.0000000000
  0.1428571429   0.1428571429   0.1428571429
  0.1428571429   0.1428571429   0.2857142857
  0.1428571429   0.1428571429   0.4285714286
  0.1428571429   0.2857142857  -0.4285714286
  0.1428571429   0.2857142857  -0.2857142857
  0.1428571429   0.2857142857  -0.1428571429
  0.1428571429   0.2857142857   0.0000000000
  0.1428571429   0.2857142857   0.1428571429
  0.1428571429   0.2857142857   0.2857142857
  0.1428571429   0.2857142857   0.4285714286
  0.1428571429   0.4285714286  -0.4285714286
  0.1428571429   0.4285714286  -0.2857142857
  0.1428571429   0.4285714286  -0.1428571429
  0.1428571429   0.4285714286   0.0000000000
  0.1428571429   0.4285714286   0.1428571429
  0.1428571429   0.4285714286   0.2857142857
  0.1428571429   0.4285714286   0.4285714286
  0.2857142857  -0.4285714286  -0.4285714286
  0.2857142857  -0.4285714286  -0.2857142857
  0.2857142857  -0.4285714286  -0.1428571429
  0.2857142857  -0.4285714286   0.0000000000
  0.2857142857  -0.4285714286   0.1428571429
  0.2857142857  -0.4285714286   0.2857142857
  0.2857142857  -0.4285714286   0.4285714286
  0.2857142857  -0.2857142857  -0.4285714286
  0.2857142857  -0.2857142857  -0.2857142857
  0.2857142857  -0.2857142857  -0.1428571429
  0.2857142857  -0.2857142857   0.0000000000
  0.2857142857  -0.2857142857   0.1428571429
  0.2857142857  -0.2857142857   0.2857142857
  0.2857142857  -0.2857142857   0.4285714286
  0.2857142857  -0.1428571429  -0.4285714286
  0.2857142857  -0.1428571429  -0.2857142857
  0.2857142857  -0.1428571429  -0.1428571429
  0.2857142857  -0.1428571429   0.0000000000
  0.2857142857  -0.1428571429   0.1428571429
  0.2857142857  -0.1428571429   0.2857142857
  0.2857142857  -0.1428571429   0.4285714286
  0.2857142857   0.0000000000  -0.4285714286
  0.2857142857   0.0000000000  -0.2857142857
  0.2857142857   0.0000000000  -0.1428571429
  0.2857142857   0.0000000000   0.0000000000
  0.2857142857   0.0000000000   0.1428571429
  0.2857142857   0.0000000000   0.2857142857
  0.2857142857   0.0000000000   0.4285714286
  0.2857142857   0.1428571429  -0.4285714286
  0.2857142857   0.1428571429  -0.2857142857
  0.2857142857   0.1428571429  -0.1428571429
  0.2857142857   0.1428571429   0.0000000000
  0.2857142857   0.1428571429   0.1428571429
  0.2857142857   0.1428571429   0.2857142857
  0.2857142857   0.1428571429   0.4285714286
  0.2857142857   0.2857142857  -0.4285714286
  0.2857142857   0.2857142857  -0.2857142857
  0.2857142857   0.2857142857  -0.1428571429
  0.2857142857   0.2857142857   0.0000000000
  0.2857142857   0.2857142857   0.1428571429
  0.2857142857   0.2857142857   0.2857142857
  0.2857142857   0.2857142857   0.4285714286
  0.2857142857   0.4285714286  -0.4285714286
  0.2857142857   0.4285714286  -0.2857142857
  0.2857142857   0.4285714286  -0.1428571429
  0.2857142857   0.4285714286   0.0000000000
  0.2857142857   0.4285714286   0.1428571429
  0.2857142857   0.4285714286   0.2857142857
  0.2857142857   0.4285714286   0.4285714286
  0.4285714286  -0.4285714286  -0.4285714286
  0.4285714286  -0.4285714286  -0.2857142857
  0.4285714286  -0.4285714286  -0.1428571429
  0.4285714286  -0.4285714286   0.0000000000
  0.4285714286  -0.4285714286   0.1428571429
  0.4285714286  -0.4285714286   0.2857142857
  0.4285714286  -0.4285714286   0.4285714286
  0.4285714286  -0.2857142857  -0.4285714286
  0.4285714286  -0.2857142857  -0.2857142857
  0.4285714286  -0.2857142857  -0.1428571429
  0.4285714286  -0.2857142857   0.0000000000
  0.4285714286  -0.2857142857   0.1428571429
  0.4285714286  -0.2857142857   0.2857142857
  0.4285714286  -0.2857142857   0.4285714286
  0.4285714286  -0.1428571429  -0.4285714286
  0.4285714286  -0.1428571429  -0.2857142857
  0.4285714286  -0.1428571429  -0.1428571429
  0.4285714286  -0.1428571429   0.0000000000
  0.4285714286  -0.1428571429   0.1428571429
  0.4285714286  -0.1428571429   0.2857142857
  0.4285714286  -0.1428571429   0.4285714286
  0.4285714286   0.0000000000  -0.4285714286
  0.4285714286   0.0000000000  -0.2857142857
  0.4285714286   0.0000000000  -0.1428571429
  0.4285714286   0.0000000000   0.0000000000
  0.4285714286   0.0000000000   0.1428571429
  0.4285714286   0.0000000000   0.2857142857
  0.4285714286   0.0000000000   0.4285714286
  0.4285714286   0.1428571429  -0.4285714286
  0.4285714286   0.1428571429  -0.2857142857
  0.4285714286   0.1428571429  -0.1428571429
  0.4285714286   0.1428571429   0.0000000000
  0.4285714286   0.1428571429   0.1428571429
  0.4285714286   0.1428571429   0.2857142857
  0.4285714286   0.1428571429   0.4285714286
  0.4285714286   0.2857142857  -0.4285714286
  0.4285714286   0.2857142857  -0.2857142857
  0.4285714286   0.2857142857  -0.1428571429
  0.4285714286   0.2857142857   0.0000000000
  0.4285714286   0.2857142857   0.1428571429
  0.4285714286   0.2857142857   0.2857142857
  0.4285714286   0.2857142857   0.4285714286
  0.4285714286   0.4285714286  -0.4285714286
  0.4285714286   0.4285714286  -0.2857142857
  0.4285714286   0.4285714286  -0.1428571429
  0.4285714286   0.4285714286   0.0000000000
  0.4285714286   0.4285714286   0.1428571429
  0.4285714286   0.4285714286   0.2857142857
  0.4285714286   0.4285714286   0.4285714286
end kpoints
