begin projections
f=0.00, 0.00, 0.00 : s # n = 2, l = 0
f=0.00, 0.00, 0.00 : s # n = 2, l = 1
f=0.00, 0.00, 0.00 : s # n = 2, l = 1
f=0.00, 0.00, 0.00 : s # n = 2, l = 1
f=0.67, 0.33, 0.33 : s # n = 2, l = 0
f=0.67, 0.33, 0.33 : s # n = 2, l = 1
f=0.67, 0.33, 0.33 : s # n = 2, l = 1
f=0.67, 0.33, 0.33 : s # n = 2, l = 1
f=0.33, 0.67, 0.67 : s # n = 2, l = 0
f=0.33, 0.67, 0.67 : s # n = 2, l = 1
f=0.33, 0.67, 0.67 : s # n = 2, l = 1
f=0.33, 0.67, 0.67 : s # n = 2, l = 1
f=0.00, 0.00, 0.50 : s # n = 4, l = 0
f=0.00, 0.00, 0.50 : s # n = 4, l = 1
f=0.00, 0.00, 0.50 : s # n = 4, l = 1
f=0.00, 0.00, 0.50 : s # n = 4, l = 1
f=0.00, 0.00, 0.50 : s # n = 3, l = 2
f=0.67, 0.33, 0.83 : s # n = 4, l = 0
f=0.67, 0.33, 0.83 : s # n = 4, l = 1
f=0.67, 0.33, 0.83 : s # n = 4, l = 1
f=0.67, 0.33, 0.83 : s # n = 4, l = 1
f=0.67, 0.33, 0.83 : s # n = 3, l = 2
f=0.33, 0.67, 0.17 : s # n = 4, l = 0
f=0.33, 0.67, 0.17 : s # n = 4, l = 1
f=0.33, 0.67, 0.17 : s # n = 4, l = 1
f=0.33, 0.67, 0.17 : s # n = 4, l = 1
f=0.33, 0.67, 0.17 : s # n = 3, l = 2
f=0.00, 0.00, 0.24 : s # n = 2, l = 0
f=0.00, 0.00, 0.24 : s # n = 2, l = 1
f=0.00, 0.00, 0.24 : s # n = 2, l = 1
f=0.00, 0.00, 0.76 : s # n = 2, l = 0
f=0.00, 0.00, 0.76 : s # n = 2, l = 1
f=0.00, 0.00, 0.76 : s # n = 2, l = 1
f=0.67, 0.33, 0.57 : s # n = 2, l = 0
f=0.67, 0.33, 0.57 : s # n = 2, l = 1
f=0.67, 0.33, 0.57 : s # n = 2, l = 1
f=0.67, 0.33, 0.09 : s # n = 2, l = 0
f=0.67, 0.33, 0.09 : s # n = 2, l = 1
f=0.67, 0.33, 0.09 : s # n = 2, l = 1
f=0.33, 0.67, 0.91 : s # n = 2, l = 0
f=0.33, 0.67, 0.91 : s # n = 2, l = 1
f=0.33, 0.67, 0.91 : s # n = 2, l = 1
f=0.33, 0.67, 0.43 : s # n = 2, l = 0
f=0.33, 0.67, 0.43 : s # n = 2, l = 1
f=0.33, 0.67, 0.43 : s # n = 2, l = 1
end projections


write_hr = True
spinors = False
write_xyz = True
translate_home_cell = True

num_bands       = 45
exclude_bands : 1,2,3,4,5,6

guiding_centres = True
num_wann        = 45
num_iter        = 5000


begin unit_cell_cart
  2.8361800000   0.0000000000   0.0000000000
 -1.4180900000   2.4562039297   0.0000000000
  0.0000000000   0.0000000000  14.1505700000
end unit_cell_cart

begin atoms_frac
Li  0.0000000000   0.0000000000   0.0000000000
Li  0.6666666667   0.3333333333   0.3333333333
Li  0.3333333333   0.6666666667   0.6666666667
Co  0.0000000000   0.0000000000   0.5000000000
Co  0.6666666667   0.3333333333   0.8333333333
Co  0.3333333333   0.6666666667   0.1666666667
O  0.0000000000   0.0000000000   0.2396000000
O  0.0000000000   0.0000000000   0.7604000000
O  0.6666666667   0.3333333333   0.5729333333
O  0.6666666667   0.3333333333   0.0937333333
O  0.3333333333   0.6666666667   0.9062666667
O  0.3333333333   0.6666666667   0.4270666667
end atoms_frac

mp_grid = 12 12 2

begin kpoints
 -0.4166666667  -0.4166666667   0.0000000000
 -0.4166666667  -0.4166666667   0.5000000000
 -0.4166666667  -0.3333333333   0.0000000000
 -0.4166666667  -0.3333333333   0.5000000000
 -0.4166666667  -0.2500000000   0.0000000000
 -0.4166666667  -0.2500000000   0.5000000000
 -0.4166666667  -0.1666666667   0.0000000000
 -0.4166666667  -0.1666666667   0.5000000000
 -0.4166666667  -0.0833333333   0.0000000000
 -0.4166666667  -0.0833333333   0.5000000000
 -0.4166666667  -0.0000000000   0.0000000000
 -0.4166666667  -0.0000000000   0.5000000000
 -0.4166666667   0.0833333333   0.0000000000
 -0.4166666667   0.0833333333   0.5000000000
 -0.4166666667   0.1666666667   0.0000000000
 -0.4166666667   0.1666666667   0.5000000000
 -0.4166666667   0.2500000000   0.0000000000
 -0.4166666667   0.2500000000   0.5000000000
 -0.4166666667   0.3333333333   0.0000000000
 -0.4166666667   0.3333333333   0.5000000000
 -0.4166666667   0.4166666667   0.0000000000
 -0.4166666667   0.4166666667   0.5000000000
 -0.4166666667   0.5000000000   0.0000000000
 -0.4166666667   0.5000000000   0.5000000000
 -0.3333333333  -0.4166666667   0.0000000000
 -0.3333333333  -0.4166666667   0.5000000000
 -0.3333333333  -0.3333333333   0.0000000000
 -0.3333333333  -0.3333333333   0.5000000000
 -0.3333333333  -0.2500000000   0.0000000000
 -0.3333333333  -0.2500000000   0.5000000000
 -0.3333333333  -0.1666666667   0.0000000000
 -0.3333333333  -0.1666666667   0.5000000000
 -0.3333333333  -0.0833333333   0.0000000000
 -0.3333333333  -0.0833333333   0.5000000000
 -0.3333333333  -0.0000000000   0.0000000000
 -0.3333333333  -0.0000000000   0.5000000000
 -0.3333333333   0.0833333333   0.0000000000
 -0.3333333333   0.0833333333   0.5000000000
 -0.3333333333   0.1666666667   0.0000000000
 -0.3333333333   0.1666666667   0.5000000000
 -0.3333333333   0.2500000000   0.0000000000
 -0.3333333333   0.2500000000   0.5000000000
 -0.3333333333   0.3333333333   0.0000000000
 -0.3333333333   0.3333333333   0.5000000000
 -0.3333333333   0.4166666667   0.0000000000
 -0.3333333333   0.4166666667   0.5000000000
 -0.3333333333   0.5000000000   0.0000000000
 -0.3333333333   0.5000000000   0.5000000000
 -0.2500000000  -0.4166666667   0.0000000000
 -0.2500000000  -0.4166666667   0.5000000000
 -0.2500000000  -0.3333333333   0.0000000000
 -0.2500000000  -0.3333333333   0.5000000000
 -0.2500000000  -0.2500000000   0.0000000000
 -0.2500000000  -0.2500000000   0.5000000000
 -0.2500000000  -0.1666666667   0.0000000000
 -0.2500000000  -0.1666666667   0.5000000000
 -0.2500000000  -0.0833333333   0.0000000000
 -0.2500000000  -0.0833333333   0.5000000000
 -0.2500000000  -0.0000000000   0.0000000000
 -0.2500000000  -0.0000000000   0.5000000000
 -0.2500000000   0.0833333333   0.0000000000
 -0.2500000000   0.0833333333   0.5000000000
 -0.2500000000   0.1666666667   0.0000000000
 -0.2500000000   0.1666666667   0.5000000000
 -0.2500000000   0.2500000000   0.0000000000
 -0.2500000000   0.2500000000   0.5000000000
 -0.2500000000   0.3333333333   0.0000000000
 -0.2500000000   0.3333333333   0.5000000000
 -0.2500000000   0.4166666667   0.0000000000
 -0.2500000000   0.4166666667   0.5000000000
 -0.2500000000   0.5000000000   0.0000000000
 -0.2500000000   0.5000000000   0.5000000000
 -0.1666666667  -0.4166666667   0.0000000000
 -0.1666666667  -0.4166666667   0.5000000000
 -0.1666666667  -0.3333333333   0.0000000000
 -0.1666666667  -0.3333333333   0.5000000000
 -0.1666666667  -0.2500000000   0.0000000000
 -0.1666666667  -0.2500000000   0.5000000000
 -0.1666666667  -0.1666666667   0.0000000000
 -0.1666666667  -0.1666666667   0.5000000000
 -0.1666666667  -0.0833333333   0.0000000000
 -0.1666666667  -0.0833333333   0.5000000000
 -0.1666666667  -0.0000000000   0.0000000000
 -0.1666666667  -0.0000000000   0.5000000000
 -0.1666666667   0.0833333333   0.0000000000
 -0.1666666667   0.0833333333   0.5000000000
 -0.1666666667   0.1666666667   0.0000000000
 -0.1666666667   0.1666666667   0.5000000000
 -0.1666666667   0.2500000000   0.0000000000
 -0.1666666667   0.2500000000   0.5000000000
 -0.1666666667   0.3333333333   0.0000000000
 -0.1666666667   0.3333333333   0.5000000000
 -0.1666666667   0.4166666667   0.0000000000
 -0.1666666667   0.4166666667   0.5000000000
 -0.1666666667   0.5000000000   0.0000000000
 -0.1666666667   0.5000000000   0.5000000000
 -0.0833333333  -0.4166666667   0.0000000000
 -0.0833333333  -0.4166666667   0.5000000000
 -0.0833333333  -0.3333333333   0.0000000000
 -0.0833333333  -0.3333333333   0.5000000000
 -0.0833333333  -0.2500000000   0.0000000000
 -0.0833333333  -0.2500000000   0.5000000000
 -0.0833333333  -0.1666666667   0.0000000000
 -0.0833333333  -0.1666666667   0.5000000000
 -0.0833333333  -0.0833333333   0.0000000000
 -0.0833333333  -0.0833333333   0.5000000000
 -0.0833333333  -0.0000000000   0.0000000000
 -0.0833333333  -0.0000000000   0.5000000000
 -0.0833333333   0.0833333333   0.0000000000
 -0.0833333333   0.0833333333   0.5000000000
 -0.0833333333   0.1666666667   0.0000000000
 -0.0833333333   0.1666666667   0.5000000000
 -0.0833333333   0.2500000000   0.0000000000
 -0.0833333333   0.2500000000   0.5000000000
 -0.0833333333   0.3333333333   0.0000000000
 -0.0833333333   0.3333333333   0.5000000000
 -0.0833333333   0.4166666667   0.0000000000
 -0.0833333333   0.4166666667   0.5000000000
 -0.0833333333   0.5000000000   0.0000000000
 -0.0833333333   0.5000000000   0.5000000000
 -0.0000000000  -0.4166666667   0.0000000000
 -0.0000000000  -0.4166666667   0.5000000000
 -0.0000000000  -0.3333333333   0.0000000000
 -0.0000000000  -0.3333333333   0.5000000000
 -0.0000000000  -0.2500000000   0.0000000000
 -0.0000000000  -0.2500000000   0.5000000000
 -0.0000000000  -0.1666666667   0.0000000000
 -0.0000000000  -0.1666666667   0.5000000000
 -0.0000000000  -0.0833333333   0.0000000000
 -0.0000000000  -0.0833333333   0.5000000000
 -0.0000000000  -0.0000000000   0.0000000000
 -0.0000000000  -0.0000000000   0.5000000000
 -0.0000000000   0.0833333333   0.0000000000
 -0.0000000000   0.0833333333   0.5000000000
 -0.0000000000   0.1666666667   0.0000000000
 -0.0000000000   0.1666666667   0.5000000000
 -0.0000000000   0.2500000000   0.0000000000
 -0.0000000000   0.2500000000   0.5000000000
 -0.0000000000   0.3333333333   0.0000000000
 -0.0000000000   0.3333333333   0.5000000000
 -0.0000000000   0.4166666667   0.0000000000
 -0.0000000000   0.4166666667   0.5000000000
 -0.0000000000   0.5000000000   0.0000000000
 -0.0000000000   0.5000000000   0.5000000000
  0.0833333333  -0.4166666667   0.0000000000
  0.0833333333  -0.4166666667   0.5000000000
  0.0833333333  -0.3333333333   0.0000000000
  0.0833333333  -0.3333333333   0.5000000000
  0.0833333333  -0.2500000000   0.0000000000
  0.0833333333  -0.2500000000   0.5000000000
  0.0833333333  -0.1666666667   0.0000000000
  0.0833333333  -0.1666666667   0.5000000000
  0.0833333333  -0.0833333333   0.0000000000
  0.0833333333  -0.0833333333   0.5000000000
  0.0833333333  -0.0000000000   0.0000000000
  0.0833333333  -0.0000000000   0.5000000000
  0.0833333333   0.0833333333   0.0000000000
  0.0833333333   0.0833333333   0.5000000000
  0.0833333333   0.1666666667   0.0000000000
  0.0833333333   0.1666666667   0.5000000000
  0.0833333333   0.2500000000   0.0000000000
  0.0833333333   0.2500000000   0.5000000000
  0.0833333333   0.3333333333   0.0000000000
  0.0833333333   0.3333333333   0.5000000000
  0.0833333333   0.4166666667   0.0000000000
  0.0833333333   0.4166666667   0.5000000000
  0.0833333333   0.5000000000   0.0000000000
  0.0833333333   0.5000000000   0.5000000000
  0.1666666667  -0.4166666667   0.0000000000
  0.1666666667  -0.4166666667   0.5000000000
  0.1666666667  -0.3333333333   0.0000000000
  0.1666666667  -0.3333333333   0.5000000000
  0.1666666667  -0.2500000000   0.0000000000
  0.1666666667  -0.2500000000   0.5000000000
  0.1666666667  -0.1666666667   0.0000000000
  0.1666666667  -0.1666666667   0.5000000000
  0.1666666667  -0.0833333333   0.0000000000
  0.1666666667  -0.0833333333   0.5000000000
  0.1666666667  -0.0000000000   0.0000000000
  0.1666666667  -0.0000000000   0.5000000000
  0.1666666667   0.0833333333   0.0000000000
  0.1666666667   0.0833333333   0.5000000000
  0.1666666667   0.1666666667   0.0000000000
  0.1666666667   0.1666666667   0.5000000000
  0.1666666667   0.2500000000   0.0000000000
  0.1666666667   0.2500000000   0.5000000000
  0.1666666667   0.3333333333   0.0000000000
  0.1666666667   0.3333333333   0.5000000000
  0.1666666667   0.4166666667   0.0000000000
  0.1666666667   0.4166666667   0.5000000000
  0.1666666667   0.5000000000   0.0000000000
  0.1666666667   0.5000000000   0.5000000000
  0.2500000000  -0.4166666667   0.0000000000
  0.2500000000  -0.4166666667   0.5000000000
  0.2500000000  -0.3333333333   0.0000000000
  0.2500000000  -0.3333333333   0.5000000000
  0.2500000000  -0.2500000000   0.0000000000
  0.2500000000  -0.2500000000   0.5000000000
  0.2500000000  -0.1666666667   0.0000000000
  0.2500000000  -0.1666666667   0.5000000000
  0.2500000000  -0.0833333333   0.0000000000
  0.2500000000  -0.0833333333   0.5000000000
  0.2500000000  -0.0000000000   0.0000000000
  0.2500000000  -0.0000000000   0.5000000000
  0.2500000000   0.0833333333   0.0000000000
  0.2500000000   0.0833333333   0.5000000000
  0.2500000000   0.1666666667   0.0000000000
  0.2500000000   0.1666666667   0.5000000000
  0.2500000000   0.2500000000   0.0000000000
  0.2500000000   0.2500000000   0.5000000000
  0.2500000000   0.3333333333   0.0000000000
  0.2500000000   0.3333333333   0.5000000000
  0.2500000000   0.4166666667   0.0000000000
  0.2500000000   0.4166666667   0.5000000000
  0.2500000000   0.5000000000   0.0000000000
  0.2500000000   0.5000000000   0.5000000000
  0.3333333333  -0.4166666667   0.0000000000
  0.3333333333  -0.4166666667   0.5000000000
  0.3333333333  -0.3333333333   0.0000000000
  0.3333333333  -0.3333333333   0.5000000000
  0.3333333333  -0.2500000000   0.0000000000
  0.3333333333  -0.2500000000   0.5000000000
  0.3333333333  -0.1666666667   0.0000000000
  0.3333333333  -0.1666666667   0.5000000000
  0.3333333333  -0.0833333333   0.0000000000
  0.3333333333  -0.0833333333   0.5000000000
  0.3333333333  -0.0000000000   0.0000000000
  0.3333333333  -0.0000000000   0.5000000000
  0.3333333333   0.0833333333   0.0000000000
  0.3333333333   0.0833333333   0.5000000000
  0.3333333333   0.1666666667   0.0000000000
  0.3333333333   0.1666666667   0.5000000000
  0.3333333333   0.2500000000   0.0000000000
  0.3333333333   0.2500000000   0.5000000000
  0.3333333333   0.3333333333   0.0000000000
  0.3333333333   0.3333333333   0.5000000000
  0.3333333333   0.4166666667   0.0000000000
  0.3333333333   0.4166666667   0.5000000000
  0.3333333333   0.5000000000   0.0000000000
  0.3333333333   0.5000000000   0.5000000000
  0.4166666667  -0.4166666667   0.0000000000
  0.4166666667  -0.4166666667   0.5000000000
  0.4166666667  -0.3333333333   0.0000000000
  0.4166666667  -0.3333333333   0.5000000000
  0.4166666667  -0.2500000000   0.0000000000
  0.4166666667  -0.2500000000   0.5000000000
  0.4166666667  -0.1666666667   0.0000000000
  0.4166666667  -0.1666666667   0.5000000000
  0.4166666667  -0.0833333333   0.0000000000
  0.4166666667  -0.0833333333   0.5000000000
  0.4166666667  -0.0000000000   0.0000000000
  0.4166666667  -0.0000000000   0.5000000000
  0.4166666667   0.0833333333   0.0000000000
  0.4166666667   0.0833333333   0.5000000000
  0.4166666667   0.1666666667   0.0000000000
  0.4166666667   0.1666666667   0.5000000000
  0.4166666667   0.2500000000   0.0000000000
  0.4166666667   0.2500000000   0.5000000000
  0.4166666667   0.3333333333   0.0000000000
  0.4166666667   0.3333333333   0.5000000000
  0.4166666667   0.4166666667   0.0000000000
  0.4166666667   0.4166666667   0.5000000000
  0.4166666667   0.5000000000   0.0000000000
  0.4166666667   0.5000000000   0.5000000000
  0.5000000000  -0.4166666667   0.0000000000
  0.5000000000  -0.4166666667   0.5000000000
  0.5000000000  -0.3333333333   0.0000000000
  0.5000000000  -0.3333333333   0.5000000000
  0.5000000000  -0.2500000000   0.0000000000
  0.5000000000  -0.2500000000   0.5000000000
  0.5000000000  -0.1666666667   0.0000000000
  0.5000000000  -0.1666666667   0.5000000000
  0.5000000000  -0.0833333333   0.0000000000
  0.5000000000  -0.0833333333   0.5000000000
  0.5000000000  -0.0000000000   0.0000000000
  0.5000000000  -0.0000000000   0.5000000000
  0.5000000000   0.0833333333   0.0000000000
  0.5000000000   0.0833333333   0.5000000000
  0.5000000000   0.1666666667   0.0000000000
  0.5000000000   0.1666666667   0.5000000000
  0.5000000000   0.2500000000   0.0000000000
  0.5000000000   0.2500000000   0.5000000000
  0.5000000000   0.3333333333   0.0000000000
  0.5000000000   0.3333333333   0.5000000000
  0.5000000000   0.4166666667   0.0000000000
  0.5000000000   0.4166666667   0.5000000000
  0.5000000000   0.5000000000   0.0000000000
  0.5000000000   0.5000000000   0.5000000000
end kpoints
